param n := 249;
param c := 10000
param : V : p w :=
   0	   8	 451
   1	  52	 267
   2	   4	 282
   3	  69	 438
   4	  75	 275
   5	  89	 287
   6	  90	 397
   7	  84	 274
   8	   2	 329
   9	  73	 362
  10	  20	 303
  11	  13	 335
  12	  13	 491
  13	  74	 251
  14	  13	 258
  15	  28	 379
  16	  97	 256
  17	  98	 365
  18	  35	 394
  19	  10	 294
  20	  83	 312
  21	  57	 437
  22	  92	 274
  23	  89	 289
  24	  57	 438
  25	   7	 271
  26	  66	 291
  27	  51	 398
  28	  91	 290
  29	  64	 312
  30	  77	 396
  31	  36	 261
  32	  17	 343
  33	  26	 482
  34	  20	 252
  35	  53	 266
  36	  13	 425
  37	  98	 252
  38	  46	 323
  39	  80	 382
  40	  87	 291
  41	  19	 327
  42	 100	 414
  43	  56	 262
  44	  44	 324
  45	  74	 388
  46	  95	 251
  47	  34	 361
  48	  29	 426
  49	 100	 259
  50	  58	 315
  51	   1	 377
  52	  10	 258
  53	  90	 365
  54	  82	 455
  55	  61	 266
  56	   8	 279
  57	  12	 411
  58	  38	 260
  59	  45	 329
  60	  25	 356
  61	  54	 295
  62	  93	 349
  63	  19	 470
  64	   1	 257
  65	  77	 273
  66	  81	 449
  67	   7	 252
  68	  32	 299
  69	  55	 380
  70	  79	 280
  71	  14	 340
  72	  79	 378
  73	   4	 305
  74	  85	 317
  75	  39	 440
  76	  83	 255
  77	  50	 305
  78	  63	 435
  79	  44	 270
  80	  98	 295
  81	  96	 478
  82	  30	 252
  83	   4	 270
  84	  62	 446
  85	  16	 252
  86	   2	 302
  87	   4	 388
  88	  61	 274
  89	  66	 338
  90	   9	 476
  91	  48	 260
  92	  73	 264
  93	  22	 487
  94	  82	 250
  95	  48	 263
  96	  92	 469
  97	  31	 262
  98	  23	 269
  99	  91	 415
 100	  38	 257
 101	  72	 328
 102	  32	 369
 103	  45	 292
 104	  60	 339
 105	  24	 377
 106	  61	 297
 107	  87	 326
 108	  33	 411
 109	  69	 282
 110	   3	 307
 111	  73	 369
 112	  10	 281
 113	   4	 350
 114	  46	 436
 115	  42	 267
 116	  45	 297
 117	  24	 459
 118	  98	 258
 119	  53	 283
 120	  74	 458
 121	  70	 268
 122	  55	 274
 123	  68	 460
 124	  85	 251
 125	   7	 289
 126	  65	 488
 127	  31	 250
 128	  57	 262
 129	  28	 436
 130	  80	 263
 131	   5	 301
 132	  29	 427
 133	   2	 275
 134	  34	 298
 135	  79	 438
 136	  20	 273
 137	  16	 289
 138	  47	 460
 139	  97	 269
 140	   8	 271
 141	  65	 444
 142	  98	 261
 143	  39	 295
 144	  67	 477
 145	  31	 255
 146	  34	 268
 147	  68	 457
 148	  92	 256
 149	  55	 287
 150	  14	 419
 151	  47	 279
 152	  38	 302
 153	  77	 417
 154	  65	 264
 155	  90	 319
 156	  82	 417
 157	  70	 271
 158	  63	 312
 159	  84	 474
 160	  42	 253
 161	  61	 273
 162	   5	 375
 163	  36	 288
 164	  52	 337
 165	  75	 458
 166	  94	 269
 167	  95	 273
 168	  47	 364
 169	  22	 303
 170	  88	 333
 171	   2	 381
 172	   3	 262
 173	  27	 357
 174	  73	 353
 175	  32	 307
 176	  65	 340
 177	  54	 470
 178	  35	 260
 179	  86	 270
 180	  33	 366
 181	  67	 289
 182	  64	 345
 183	   2	 384
 184	  35	 264
 185	  19	 352
 186	  49	 369
 187	  46	 259
 188	  18	 372
 189	  23	 470
 190	  26	 255
 191	  96	 275
 192	  75	 471
 193	   6	 255
 194	  45	 274
 195	  73	 424
 196	  92	 280
 197	  46	 296
 198	  43	 440
 199	  82	 269
 200	  17	 291
 201	  22	 386
 202	  58	 250
 203	  80	 364
 204	  75	 460
 205	  16	 255
 206	  76	 285
 207	  86	 376
 208	  38	 292
 209	  29	 332
 210	  40	 356
 211	  26	 303
 212	  92	 341
 213	  96	 480
 214	  82	 257
 215	  24	 263
 216	  30	 424
 217	  13	 268
 218	  32	 308
 219	  99	 370
 220	  56	 275
 221	  99	 355
 222	  45	 494
 223	  40	 250
 224	   7	 256
 225	  12	 434
 226	  66	 264
 227	  26	 302
 228	  61	 463
 229	  82	 267
 230	   2	 270
 231	  76	 411
 232	  85	 280
 233	  77	 309
 234	  63	 427
 235	  67	 255
 236	  61	 318
 237	  52	 466
 238	  54	 259
 239	  86	 275
 240	  98	 491
 241	  27	 252
 242	  70	 257
 243	  85	 400
 244	  72	 286
 245	  65	 314
 246	  50	 446
 247	   5	 260
 248	  66	 294
;

set E :=
   0	  10
   0	  12
   0	  13
   0	  18
   0	  19
   0	  24
   0	  29
   0	  34
   0	  46
   0	  65
   0	  77
   0	  79
   0	  81
   0	  84
   0	  85
   0	 107
   0	 111
   0	 129
   0	 132
   0	 152
   0	 159
   0	 173
   0	 185
   0	 186
   0	 195
   0	 198
   0	 228
   0	 229
   0	 230
   0	 237
   0	 244
   1	   4
   1	  16
   1	  19
   1	  30
   1	  33
   1	  39
   1	  67
   1	 100
   1	 101
   1	 109
   1	 110
   1	 112
   1	 117
   1	 118
   1	 122
   1	 135
   1	 140
   1	 149
   1	 176
   1	 210
   2	  11
   2	  42
   2	  44
   2	  58
   2	  76
   2	  79
   2	  83
   2	 101
   2	 104
   2	 108
   2	 109
   2	 136
   2	 185
   2	 191
   2	 198
   2	 205
   2	 215
   2	 221
   2	 225
   3	  27
   3	  34
   3	  43
   3	  45
   3	  50
   3	  65
   3	  66
   3	  76
   3	  84
   3	  88
   3	  94
   3	 104
   3	 111
   3	 120
   3	 128
   3	 134
   3	 161
   3	 177
   3	 197
   3	 202
   3	 214
   3	 218
   3	 223
   3	 231
   3	 246
   4	  25
   4	  26
   4	  35
   4	  76
   4	  82
   4	  83
   4	  84
   4	  86
   4	  88
   4	  91
   4	  93
   4	 107
   4	 112
   4	 121
   4	 122
   4	 130
   4	 136
   4	 206
   4	 223
   4	 231
   5	  13
   5	  20
   5	  31
   5	  52
   5	  63
   5	  64
   5	  66
   5	  76
   5	  77
   5	  86
   5	  88
   5	 117
   5	 132
   5	 136
   5	 163
   5	 180
   5	 194
   5	 196
   5	 208
   5	 209
   5	 216
   6	  17
   6	  36
   6	  46
   6	  49
   6	  70
   6	  78
   6	  80
   6	  92
   6	  98
   6	 105
   6	 114
   6	 117
   6	 119
   6	 136
   6	 139
   6	 147
   6	 149
   6	 158
   6	 193
   6	 202
   6	 210
   6	 211
   6	 215
   6	 220
   6	 222
   7	  15
   7	  24
   7	  27
   7	  40
   7	  50
   7	  59
   7	  80
   7	  84
   7	  93
   7	 110
   7	 129
   7	 136
   7	 144
   7	 165
   7	 166
   7	 169
   7	 217
   7	 218
   7	 229
   7	 238
   8	  16
   8	  31
   8	  56
   8	  60
   8	  61
   8	  63
   8	  65
   8	  79
   8	 103
   8	 127
   8	 139
   8	 153
   8	 161
   8	 166
   8	 178
   8	 188
   8	 196
   8	 220
   8	 229
   8	 236
   8	 237
   9	  23
   9	  32
   9	  39
   9	  74
   9	  79
   9	  87
   9	 101
   9	 112
   9	 117
   9	 146
   9	 151
   9	 155
   9	 172
   9	 173
   9	 204
   9	 208
   9	 222
   9	 225
  10	  15
  10	  24
  10	  34
  10	  37
  10	  62
  10	  68
  10	  84
  10	  86
  10	 101
  10	 102
  10	 113
  10	 118
  10	 126
  10	 129
  10	 132
  10	 133
  10	 142
  10	 152
  10	 158
  10	 159
  10	 167
  10	 172
  10	 180
  10	 191
  10	 194
  10	 195
  10	 198
  10	 216
  10	 229
  10	 236
  10	 243
  11	  12
  11	  16
  11	  27
  11	  32
  11	  37
  11	  39
  11	  46
  11	  58
  11	  60
  11	  63
  11	  66
  11	  67
  11	  86
  11	  94
  11	 107
  11	 110
  11	 111
  11	 115
  11	 123
  11	 124
  11	 134
  11	 139
  11	 156
  11	 167
  11	 178
  11	 188
  11	 191
  11	 192
  11	 199
  11	 226
  11	 237
  11	 241
  11	 244
  11	 247
  12	  20
  12	  45
  12	  51
  12	  56
  12	  58
  12	  61
  12	  62
  12	  63
  12	  64
  12	  65
  12	  70
  12	  99
  12	 108
  12	 121
  12	 122
  12	 128
  12	 129
  12	 138
  12	 151
  12	 168
  12	 169
  12	 174
  12	 182
  12	 191
  12	 195
  12	 232
  12	 246
  13	  19
  13	  39
  13	  66
  13	  80
  13	 104
  13	 106
  13	 114
  13	 127
  13	 135
  13	 150
  13	 168
  13	 174
  13	 183
  13	 202
  13	 205
  13	 240
  13	 248
  14	  38
  14	  53
  14	  76
  14	  78
  14	  89
  14	  93
  14	 117
  14	 123
  14	 128
  14	 132
  14	 145
  14	 150
  14	 153
  14	 155
  14	 162
  14	 164
  14	 167
  14	 180
  14	 185
  14	 202
  14	 219
  14	 240
  15	  43
  15	  74
  15	  91
  15	 129
  15	 134
  15	 138
  15	 147
  15	 157
  15	 169
  15	 179
  15	 184
  15	 199
  15	 210
  15	 224
  15	 228
  15	 246
  16	  39
  16	  51
  16	  79
  16	  95
  16	 114
  16	 129
  16	 130
  16	 133
  16	 134
  16	 138
  16	 142
  16	 147
  16	 170
  16	 190
  16	 202
  16	 204
  16	 208
  16	 216
  16	 229
  16	 232
  16	 235
  17	  18
  17	  27
  17	  32
  17	  36
  17	  48
  17	  50
  17	  52
  17	  60
  17	  62
  17	  64
  17	  70
  17	  71
  17	  97
  17	  99
  17	 103
  17	 104
  17	 114
  17	 120
  17	 131
  17	 139
  17	 145
  17	 157
  17	 180
  17	 184
  17	 215
  17	 217
  17	 220
  17	 223
  17	 227
  17	 231
  18	  27
  18	  39
  18	  50
  18	  56
  18	  65
  18	  68
  18	  69
  18	  78
  18	  81
  18	  96
  18	 141
  18	 171
  18	 174
  18	 176
  18	 201
  18	 205
  18	 211
  18	 226
  18	 233
  18	 234
  18	 244
  19	  22
  19	  43
  19	  64
  19	  65
  19	  78
  19	  79
  19	  83
  19	  86
  19	 126
  19	 139
  19	 143
  19	 153
  19	 167
  19	 192
  19	 220
  19	 222
  19	 230
  19	 233
  19	 246
  20	  21
  20	  24
  20	  26
  20	  35
  20	  37
  20	  42
  20	  54
  20	  59
  20	  60
  20	  62
  20	  80
  20	  96
  20	 110
  20	 113
  20	 122
  20	 123
  20	 132
  20	 148
  20	 163
  20	 168
  20	 184
  20	 193
  20	 195
  20	 197
  20	 227
  20	 245
  20	 246
  21	  26
  21	  29
  21	  38
  21	  52
  21	  72
  21	  79
  21	  80
  21	  83
  21	 105
  21	 116
  21	 117
  21	 134
  21	 135
  21	 138
  21	 142
  21	 144
  21	 146
  21	 158
  21	 180
  21	 184
  21	 186
  21	 192
  21	 197
  21	 208
  21	 219
  21	 220
  21	 229
  21	 240
  22	  29
  22	  31
  22	  38
  22	  49
  22	  52
  22	  53
  22	  91
  22	 113
  22	 119
  22	 121
  22	 123
  22	 133
  22	 165
  22	 183
  22	 190
  22	 240
  22	 243
  23	  25
  23	  28
  23	  78
  23	  81
  23	 140
  23	 148
  23	 180
  23	 206
  23	 211
  23	 217
  23	 223
  23	 236
  23	 245
  23	 246
  24	  30
  24	  40
  24	  43
  24	  44
  24	  45
  24	  51
  24	  55
  24	  56
  24	  62
  24	  79
  24	  81
  24	  82
  24	  87
  24	  98
  24	 112
  24	 118
  24	 127
  24	 138
  24	 141
  24	 145
  24	 148
  24	 149
  24	 150
  24	 167
  24	 171
  24	 178
  24	 188
  24	 199
  24	 216
  24	 234
  25	  31
  25	  54
  25	  55
  25	  67
  25	  70
  25	  79
  25	  83
  25	  87
  25	  92
  25	 105
  25	 128
  25	 170
  25	 189
  25	 197
  25	 200
  25	 242
  26	  43
  26	  44
  26	  56
  26	  67
  26	  70
  26	  72
  26	  95
  26	 106
  26	 121
  26	 127
  26	 173
  26	 175
  26	 176
  26	 183
  26	 200
  26	 202
  26	 204
  26	 228
  26	 230
  27	  31
  27	  40
  27	  45
  27	  51
  27	  60
  27	  62
  27	  65
  27	  71
  27	  87
  27	  92
  27	 101
  27	 106
  27	 111
  27	 125
  27	 127
  27	 133
  27	 135
  27	 139
  27	 180
  27	 210
  27	 211
  27	 226
  27	 236
  27	 244
  28	  39
  28	  48
  28	  51
  28	  52
  28	  60
  28	  63
  28	  66
  28	  86
  28	  91
  28	  98
  28	 104
  28	 119
  28	 139
  28	 141
  28	 159
  28	 168
  28	 171
  28	 181
  28	 211
  28	 216
  28	 220
  28	 221
  28	 229
  29	  34
  29	  51
  29	  56
  29	  59
  29	  66
  29	 104
  29	 108
  29	 139
  29	 155
  29	 161
  29	 211
  29	 217
  30	  31
  30	  34
  30	  39
  30	  57
  30	  80
  30	  81
  30	  88
  30	  91
  30	  93
  30	  98
  30	 122
  30	 123
  30	 126
  30	 138
  30	 148
  30	 183
  30	 224
  31	  35
  31	  56
  31	  81
  31	  85
  31	  98
  31	 113
  31	 119
  31	 143
  31	 145
  31	 154
  31	 167
  31	 206
  31	 226
  31	 227
  31	 231
  31	 241
  32	  35
  32	  56
  32	  63
  32	  68
  32	  73
  32	  82
  32	 101
  32	 107
  32	 128
  32	 141
  32	 143
  32	 144
  32	 156
  32	 161
  32	 165
  32	 170
  32	 177
  32	 181
  32	 182
  32	 185
  32	 189
  32	 194
  32	 219
  32	 220
  32	 235
  32	 238
  33	  38
  33	  52
  33	  73
  33	  85
  33	  93
  33	  94
  33	  98
  33	 105
  33	 125
  33	 162
  33	 190
  33	 191
  33	 198
  33	 200
  33	 203
  33	 206
  33	 209
  33	 215
  33	 217
  33	 220
  33	 233
  33	 234
  34	  43
  34	  78
  34	  87
  34	  89
  34	 110
  34	 114
  34	 135
  34	 145
  34	 161
  34	 163
  34	 170
  34	 187
  34	 196
  34	 212
  34	 216
  34	 217
  34	 248
  35	  39
  35	  57
  35	  58
  35	  62
  35	  66
  35	  68
  35	  75
  35	  99
  35	 113
  35	 122
  35	 130
  35	 131
  35	 146
  35	 147
  35	 156
  35	 157
  35	 159
  35	 167
  35	 168
  35	 184
  35	 186
  35	 200
  35	 229
  35	 236
  36	  46
  36	  49
  36	  55
  36	  64
  36	  76
  36	  82
  36	  86
  36	 104
  36	 105
  36	 127
  36	 139
  36	 158
  36	 173
  36	 190
  36	 193
  36	 199
  36	 219
  36	 241
  36	 244
  37	  41
  37	  44
  37	  66
  37	  82
  37	  92
  37	  95
  37	 105
  37	 106
  37	 110
  37	 111
  37	 150
  37	 171
  37	 174
  37	 178
  37	 193
  37	 196
  37	 199
  37	 221
  37	 230
  37	 240
  37	 245
  38	  44
  38	  47
  38	  60
  38	  62
  38	  70
  38	  71
  38	  82
  38	  83
  38	  87
  38	  94
  38	 119
  38	 137
  38	 138
  38	 145
  38	 155
  38	 165
  38	 171
  38	 175
  38	 188
  38	 196
  38	 201
  38	 204
  38	 209
  38	 210
  38	 219
  38	 220
  38	 229
  39	  41
  39	  49
  39	  50
  39	  90
  39	  97
  39	 108
  39	 111
  39	 116
  39	 136
  39	 140
  39	 155
  39	 176
  39	 192
  39	 196
  39	 212
  39	 228
  39	 235
  39	 236
  40	  45
  40	  54
  40	  59
  40	  60
  40	  74
  40	  79
  40	 107
  40	 142
  40	 163
  40	 172
  40	 179
  40	 190
  40	 191
  40	 211
  40	 218
  40	 220
  40	 244
  41	  43
  41	  49
  41	  79
  41	  92
  41	  97
  41	  99
  41	 148
  41	 170
  41	 177
  41	 222
  41	 226
  41	 227
  41	 231
  41	 238
  41	 244
  41	 245
  42	  54
  42	  78
  42	  94
  42	  96
  42	 113
  42	 115
  42	 119
  42	 131
  42	 142
  42	 148
  42	 152
  42	 153
  42	 182
  42	 187
  42	 188
  42	 211
  42	 217
  42	 225
  42	 240
  43	  56
  43	  57
  43	  72
  43	  82
  43	  84
  43	  89
  43	  97
  43	 101
  43	 102
  43	 103
  43	 106
  43	 108
  43	 114
  43	 117
  43	 133
  43	 137
  43	 147
  43	 157
  43	 160
  43	 172
  43	 179
  43	 180
  43	 181
  43	 219
  43	 220
  43	 235
  44	  53
  44	  83
  44	  90
  44	 120
  44	 127
  44	 129
  44	 130
  44	 136
  44	 138
  44	 142
  44	 145
  44	 147
  44	 153
  44	 158
  44	 162
  44	 190
  44	 191
  44	 192
  44	 201
  44	 207
  44	 212
  44	 225
  44	 236
  44	 240
  45	  56
  45	  64
  45	  71
  45	  73
  45	  79
  45	  96
  45	 112
  45	 115
  45	 120
  45	 127
  45	 130
  45	 132
  45	 136
  45	 147
  45	 161
  45	 176
  45	 178
  45	 219
  45	 222
  45	 225
  45	 231
  45	 237
  46	  64
  46	  68
  46	  73
  46	  92
  46	 109
  46	 115
  46	 130
  46	 137
  46	 158
  46	 159
  46	 176
  46	 181
  46	 185
  46	 189
  46	 193
  46	 204
  46	 208
  46	 217
  46	 218
  46	 228
  46	 232
  47	  48
  47	  61
  47	  68
  47	  70
  47	  86
  47	 123
  47	 127
  47	 130
  47	 131
  47	 132
  47	 134
  47	 135
  47	 154
  47	 159
  47	 165
  47	 185
  47	 190
  47	 195
  47	 199
  47	 210
  47	 211
  47	 214
  47	 238
  47	 246
  48	  52
  48	  65
  48	  73
  48	  83
  48	  84
  48	  88
  48	 104
  48	 109
  48	 127
  48	 144
  48	 145
  48	 149
  48	 167
  48	 174
  48	 178
  48	 182
  48	 184
  48	 185
  48	 192
  48	 196
  48	 199
  48	 200
  48	 201
  48	 215
  48	 218
  48	 222
  48	 227
  48	 228
  49	  76
  49	  91
  49	  98
  49	 109
  49	 110
  49	 112
  49	 113
  49	 114
  49	 116
  49	 170
  49	 178
  49	 191
  49	 195
  49	 198
  49	 200
  49	 204
  49	 207
  49	 208
  49	 210
  49	 214
  49	 243
  50	  73
  50	  78
  50	 100
  50	 107
  50	 132
  50	 136
  50	 141
  50	 149
  50	 152
  50	 158
  50	 164
  50	 187
  50	 192
  50	 195
  50	 230
  50	 237
  50	 246
  51	  53
  51	  56
  51	  71
  51	  75
  51	  77
  51	 103
  51	 108
  51	 115
  51	 117
  51	 122
  51	 128
  51	 174
  51	 210
  51	 233
  51	 239
  51	 248
  52	  71
  52	  78
  52	  79
  52	  80
  52	  82
  52	  96
  52	 109
  52	 115
  52	 123
  52	 142
  52	 154
  52	 170
  52	 179
  52	 196
  52	 200
  52	 209
  52	 213
  52	 217
  52	 221
  52	 224
  52	 236
  52	 240
  53	  72
  53	  74
  53	  80
  53	 127
  53	 132
  53	 147
  53	 176
  53	 185
  53	 195
  53	 199
  53	 217
  53	 218
  53	 228
  53	 237
  53	 244
  53	 247
  54	  65
  54	  74
  54	  83
  54	  85
  54	  90
  54	 102
  54	 103
  54	 105
  54	 109
  54	 119
  54	 128
  54	 146
  54	 158
  54	 161
  54	 164
  54	 175
  54	 176
  54	 181
  54	 194
  54	 214
  54	 215
  54	 218
  54	 221
  54	 244
  55	  66
  55	  72
  55	  76
  55	  78
  55	  82
  55	  90
  55	 100
  55	 108
  55	 109
  55	 114
  55	 128
  55	 135
  55	 139
  55	 157
  55	 164
  55	 173
  55	 195
  55	 208
  55	 224
  55	 228
  55	 237
  55	 241
  55	 242
  55	 248
  56	  64
  56	  69
  56	  80
  56	 133
  56	 136
  56	 142
  56	 147
  56	 178
  56	 181
  56	 191
  56	 200
  56	 205
  56	 209
  56	 212
  56	 222
  57	  62
  57	  72
  57	  90
  57	 104
  57	 107
  57	 117
  57	 155
  57	 157
  57	 170
  57	 175
  57	 179
  57	 193
  57	 195
  57	 199
  57	 203
  57	 207
  57	 212
  57	 218
  57	 240
  57	 248
  58	  60
  58	  62
  58	  87
  58	  91
  58	 118
  58	 129
  58	 149
  58	 152
  58	 157
  58	 166
  58	 170
  58	 175
  58	 187
  58	 197
  58	 198
  58	 220
  58	 230
  58	 242
  59	  62
  59	  63
  59	  66
  59	  76
  59	 109
  59	 114
  59	 122
  59	 139
  59	 144
  59	 173
  59	 174
  59	 176
  59	 185
  59	 190
  59	 211
  59	 212
  59	 217
  59	 238
  60	  63
  60	  66
  60	  89
  60	 113
  60	 134
  60	 135
  60	 161
  60	 171
  60	 189
  60	 209
  60	 217
  60	 230
  60	 243
  60	 248
  61	  71
  61	  81
  61	  97
  61	 103
  61	 113
  61	 115
  61	 126
  61	 130
  61	 135
  61	 144
  61	 159
  61	 161
  61	 196
  61	 203
  61	 205
  61	 212
  61	 222
  61	 230
  61	 235
  61	 243
  62	  79
  62	  82
  62	  94
  62	 106
  62	 114
  62	 123
  62	 125
  62	 126
  62	 129
  62	 168
  62	 171
  62	 180
  62	 191
  62	 193
  62	 213
  62	 224
  62	 230
  62	 235
  62	 239
  62	 245
  63	  72
  63	  79
  63	  82
  63	 101
  63	 110
  63	 114
  63	 121
  63	 146
  63	 180
  63	 184
  63	 193
  63	 206
  63	 209
  63	 220
  63	 223
  64	  89
  64	  90
  64	  99
  64	 108
  64	 119
  64	 126
  64	 128
  64	 168
  64	 179
  64	 185
  64	 186
  64	 191
  64	 207
  64	 208
  64	 209
  64	 211
  64	 212
  64	 220
  64	 227
  64	 231
  64	 239
  65	  75
  65	  77
  65	  79
  65	  84
  65	  85
  65	  91
  65	 123
  65	 135
  65	 137
  65	 138
  65	 148
  65	 152
  65	 160
  65	 181
  65	 189
  65	 220
  65	 223
  65	 232
  65	 236
  65	 248
  66	  94
  66	 101
  66	 115
  66	 151
  66	 162
  66	 163
  66	 165
  66	 172
  66	 175
  66	 177
  66	 186
  66	 192
  66	 199
  66	 204
  66	 210
  66	 218
  66	 225
  66	 238
  66	 245
  66	 246
  67	  79
  67	  80
  67	  83
  67	 119
  67	 135
  67	 146
  67	 166
  67	 180
  67	 181
  67	 188
  67	 205
  67	 209
  67	 212
  67	 235
  68	  73
  68	  88
  68	  91
  68	 107
  68	 115
  68	 121
  68	 139
  68	 164
  68	 167
  68	 174
  68	 178
  68	 186
  68	 188
  68	 193
  68	 198
  68	 205
  68	 215
  68	 230
  69	  89
  69	 107
  69	 109
  69	 110
  69	 112
  69	 141
  69	 150
  69	 151
  69	 165
  69	 167
  69	 175
  69	 182
  69	 189
  69	 193
  69	 233
  69	 234
  70	  71
  70	  79
  70	  85
  70	  88
  70	  89
  70	 104
  70	 105
  70	 109
  70	 115
  70	 118
  70	 131
  70	 135
  70	 147
  70	 154
  70	 155
  70	 158
  70	 168
  70	 180
  70	 191
  70	 195
  70	 199
  70	 208
  70	 234
  70	 239
  70	 240
  70	 242
  70	 246
  70	 247
  71	  73
  71	  79
  71	  92
  71	 116
  71	 126
  71	 132
  71	 134
  71	 160
  71	 164
  71	 165
  71	 174
  71	 185
  71	 194
  71	 200
  71	 202
  71	 206
  71	 208
  71	 209
  71	 227
  71	 238
  72	  77
  72	 103
  72	 115
  72	 119
  72	 132
  72	 133
  72	 162
  72	 194
  72	 200
  72	 201
  72	 204
  72	 215
  72	 218
  72	 223
  72	 225
  72	 227
  72	 229
  72	 241
  72	 242
  72	 248
  73	  80
  73	  88
  73	  95
  73	  98
  73	 146
  73	 150
  73	 183
  73	 189
  73	 195
  73	 211
  73	 218
  73	 241
  74	  76
  74	  84
  74	 101
  74	 107
  74	 110
  74	 112
  74	 120
  74	 135
  74	 140
  74	 163
  74	 182
  74	 193
  74	 198
  74	 209
  74	 227
  74	 243
  75	  76
  75	  80
  75	  84
  75	 120
  75	 127
  75	 130
  75	 131
  75	 139
  75	 144
  75	 159
  75	 162
  75	 164
  75	 166
  75	 168
  75	 186
  75	 187
  75	 190
  75	 199
  75	 206
  75	 221
  75	 222
  75	 228
  75	 237
  75	 245
  75	 248
  76	  90
  76	  93
  76	 107
  76	 120
  76	 125
  76	 134
  76	 138
  76	 147
  76	 157
  76	 159
  76	 162
  76	 184
  76	 188
  76	 208
  76	 216
  76	 232
  76	 237
  77	  79
  77	 124
  77	 130
  77	 136
  77	 142
  77	 149
  77	 166
  77	 170
  77	 178
  77	 183
  77	 230
  78	  91
  78	  98
  78	 105
  78	 111
  78	 113
  78	 116
  78	 125
  78	 140
  78	 145
  78	 146
  78	 162
  78	 168
  78	 224
  78	 227
  78	 229
  78	 237
  78	 239
  78	 240
  79	  84
  79	  89
  79	  97
  79	 100
  79	 145
  79	 157
  79	 160
  79	 163
  79	 190
  79	 199
  79	 205
  79	 211
  79	 214
  79	 218
  79	 224
  79	 232
  80	  84
  80	  89
  80	 104
  80	 108
  80	 124
  80	 126
  80	 133
  80	 135
  80	 136
  80	 138
  80	 142
  80	 150
  80	 164
  80	 167
  80	 173
  80	 183
  80	 192
  80	 204
  80	 211
  80	 216
  80	 229
  80	 234
  80	 237
  81	  84
  81	  88
  81	  89
  81	  94
  81	  95
  81	 110
  81	 113
  81	 123
  81	 134
  81	 135
  81	 147
  81	 160
  81	 162
  81	 167
  81	 181
  81	 187
  81	 195
  81	 201
  81	 209
  81	 211
  81	 232
  81	 243
  82	  83
  82	  84
  82	  86
  82	  89
  82	  94
  82	  98
  82	 112
  82	 124
  82	 125
  82	 129
  82	 138
  82	 140
  82	 141
  82	 142
  82	 149
  82	 151
  82	 156
  82	 182
  82	 185
  82	 196
  82	 218
  82	 228
  82	 242
  82	 246
  83	  92
  83	  94
  83	 103
  83	 104
  83	 107
  83	 114
  83	 135
  83	 137
  83	 138
  83	 146
  83	 149
  83	 154
  83	 170
  83	 203
  83	 209
  83	 212
  83	 216
  83	 217
  83	 222
  83	 233
  83	 236
  84	 102
  84	 106
  84	 117
  84	 118
  84	 121
  84	 144
  84	 149
  84	 152
  84	 174
  84	 181
  84	 185
  84	 199
  84	 206
  84	 233
  85	  87
  85	  94
  85	 113
  85	 128
  85	 169
  85	 171
  85	 175
  85	 177
  85	 182
  85	 185
  85	 189
  85	 200
  85	 232
  85	 241
  85	 248
  86	  91
  86	  93
  86	  95
  86	 105
  86	 142
  86	 146
  86	 147
  86	 156
  86	 161
  86	 167
  86	 170
  86	 205
  86	 213
  86	 219
  86	 227
  86	 239
  86	 243
  87	  88
  87	  89
  87	  93
  87	  98
  87	 102
  87	 114
  87	 122
  87	 124
  87	 131
  87	 147
  87	 151
  87	 154
  87	 163
  87	 198
  87	 209
  87	 214
  87	 222
  87	 227
  87	 234
  87	 245
  87	 247
  88	 109
  88	 110
  88	 119
  88	 135
  88	 138
  88	 139
  88	 157
  88	 161
  88	 173
  88	 174
  88	 178
  88	 192
  88	 194
  88	 228
  88	 230
  88	 235
  88	 245
  88	 246
  89	  95
  89	 100
  89	 122
  89	 133
  89	 140
  89	 162
  89	 163
  89	 177
  89	 178
  89	 184
  89	 200
  89	 206
  89	 209
  89	 212
  89	 215
  89	 247
  90	 100
  90	 124
  90	 140
  90	 159
  90	 163
  90	 169
  90	 171
  90	 174
  90	 187
  90	 190
  90	 191
  90	 195
  90	 200
  90	 201
  90	 215
  90	 220
  90	 226
  90	 240
  90	 244
  90	 245
  90	 247
  90	 248
  91	 114
  91	 125
  91	 135
  91	 142
  91	 144
  91	 158
  91	 170
  91	 200
  91	 223
  91	 231
  91	 243
  92	  94
  92	 109
  92	 111
  92	 120
  92	 128
  92	 132
  92	 133
  92	 135
  92	 140
  92	 149
  92	 155
  92	 170
  92	 171
  92	 183
  92	 203
  92	 207
  92	 220
  92	 224
  92	 228
  92	 230
  92	 235
  92	 238
  92	 243
  93	  99
  93	 119
  93	 126
  93	 128
  93	 133
  93	 141
  93	 143
  93	 153
  93	 156
  93	 157
  93	 184
  93	 191
  93	 192
  93	 224
  93	 226
  93	 248
  94	 104
  94	 114
  94	 136
  94	 149
  94	 151
  94	 156
  94	 158
  94	 161
  94	 179
  94	 180
  94	 184
  94	 192
  94	 193
  94	 195
  94	 196
  94	 205
  94	 211
  94	 218
  94	 242
  95	  98
  95	 108
  95	 128
  95	 138
  95	 157
  95	 168
  95	 183
  95	 196
  95	 201
  95	 203
  95	 208
  95	 228
  95	 233
  95	 238
  96	 103
  96	 112
  96	 117
  96	 125
  96	 133
  96	 140
  96	 148
  96	 163
  96	 166
  96	 174
  96	 197
  96	 201
  96	 214
  96	 216
  96	 221
  96	 228
  96	 232
  96	 241
  97	 100
  97	 102
  97	 114
  97	 119
  97	 136
  97	 142
  97	 146
  97	 150
  97	 152
  97	 155
  97	 159
  97	 183
  97	 186
  97	 188
  97	 196
  97	 201
  97	 210
  97	 215
  97	 224
  97	 233
  97	 238
  98	 102
  98	 105
  98	 106
  98	 131
  98	 136
  98	 151
  98	 154
  98	 171
  98	 186
  98	 194
  98	 213
  98	 217
  98	 219
  98	 234
  98	 235
  98	 237
  98	 248
  99	 118
  99	 149
  99	 150
  99	 188
  99	 201
  99	 221
  99	 236
 100	 126
 100	 139
 100	 141
 100	 142
 100	 143
 100	 158
 100	 173
 100	 189
 100	 190
 100	 191
 100	 205
 100	 235
 101	 103
 101	 113
 101	 127
 101	 140
 101	 144
 101	 158
 101	 171
 101	 174
 101	 176
 101	 181
 101	 183
 101	 198
 101	 202
 102	 110
 102	 116
 102	 136
 102	 137
 102	 148
 102	 158
 102	 161
 102	 165
 102	 171
 102	 183
 102	 185
 102	 188
 102	 192
 102	 194
 102	 200
 102	 203
 102	 213
 102	 231
 102	 232
 102	 240
 102	 248
 103	 106
 103	 109
 103	 125
 103	 133
 103	 138
 103	 148
 103	 160
 103	 172
 103	 174
 103	 178
 103	 180
 103	 201
 103	 218
 103	 246
 104	 110
 104	 121
 104	 123
 104	 134
 104	 137
 104	 140
 104	 148
 104	 165
 104	 166
 104	 173
 104	 175
 104	 179
 104	 180
 104	 198
 104	 201
 104	 209
 104	 235
 105	 106
 105	 116
 105	 127
 105	 134
 105	 161
 105	 183
 105	 186
 105	 240
 106	 119
 106	 184
 106	 198
 106	 213
 106	 233
 106	 237
 107	 111
 107	 117
 107	 132
 107	 134
 107	 142
 107	 159
 107	 165
 107	 170
 107	 187
 107	 198
 107	 210
 107	 217
 107	 226
 107	 242
 108	 122
 108	 130
 108	 131
 108	 147
 108	 162
 108	 186
 108	 196
 108	 203
 108	 208
 108	 216
 108	 221
 108	 223
 108	 237
 108	 244
 109	 113
 109	 133
 109	 151
 109	 215
 109	 241
 109	 242
 110	 140
 110	 152
 110	 155
 110	 158
 110	 159
 110	 172
 110	 225
 110	 227
 110	 235
 110	 236
 110	 243
 111	 117
 111	 143
 111	 144
 111	 169
 111	 171
 111	 172
 111	 188
 111	 197
 111	 222
 111	 224
 111	 225
 111	 234
 111	 245
 112	 118
 112	 121
 112	 148
 112	 165
 112	 168
 112	 175
 112	 178
 112	 184
 112	 185
 112	 186
 112	 188
 112	 190
 112	 213
 112	 217
 112	 238
 113	 202
 113	 209
 113	 211
 113	 224
 113	 227
 113	 230
 114	 120
 114	 134
 114	 138
 114	 142
 114	 144
 114	 147
 114	 148
 114	 157
 114	 182
 114	 203
 114	 214
 114	 221
 114	 222
 114	 223
 114	 229
 114	 236
 114	 237
 114	 243
 114	 244
 115	 143
 115	 144
 115	 145
 115	 173
 115	 175
 115	 178
 115	 195
 115	 204
 115	 216
 115	 222
 115	 227
 115	 229
 115	 240
 116	 117
 116	 121
 116	 124
 116	 142
 116	 149
 116	 176
 116	 193
 116	 208
 116	 209
 116	 210
 116	 229
 116	 241
 117	 119
 117	 120
 117	 121
 117	 143
 117	 158
 117	 164
 117	 165
 117	 177
 117	 217
 117	 234
 117	 240
 117	 245
 118	 123
 118	 124
 118	 128
 118	 155
 118	 161
 118	 174
 118	 175
 118	 177
 118	 178
 118	 179
 118	 180
 118	 199
 118	 200
 118	 201
 118	 215
 118	 219
 118	 233
 119	 121
 119	 138
 119	 177
 119	 190
 119	 198
 119	 220
 119	 224
 119	 247
 120	 123
 120	 128
 120	 137
 120	 142
 120	 143
 120	 150
 120	 156
 120	 157
 120	 164
 120	 193
 120	 198
 120	 201
 120	 208
 120	 222
 120	 229
 120	 230
 120	 243
 121	 130
 121	 136
 121	 158
 121	 163
 121	 167
 121	 180
 121	 186
 121	 194
 121	 198
 121	 229
 121	 232
 121	 242
 122	 124
 122	 132
 122	 141
 122	 152
 122	 153
 122	 176
 122	 178
 122	 180
 122	 205
 122	 208
 122	 243
 122	 246
 123	 125
 123	 129
 123	 135
 123	 139
 123	 142
 123	 145
 123	 158
 123	 174
 123	 190
 123	 194
 123	 203
 123	 223
 123	 229
 123	 248
 124	 173
 124	 180
 124	 198
 124	 204
 124	 217
 124	 230
 125	 127
 125	 148
 125	 163
 125	 166
 125	 176
 125	 177
 125	 193
 125	 195
 125	 206
 125	 227
 125	 234
 125	 235
 125	 239
 126	 128
 126	 131
 126	 140
 126	 142
 126	 150
 126	 170
 126	 201
 126	 210
 126	 228
 126	 233
 127	 132
 127	 141
 127	 147
 127	 158
 127	 161
 127	 167
 127	 168
 127	 170
 127	 179
 127	 187
 127	 189
 127	 194
 127	 197
 127	 221
 127	 238
 128	 130
 128	 134
 128	 137
 128	 142
 128	 147
 128	 148
 128	 149
 128	 154
 128	 165
 128	 178
 128	 186
 128	 204
 128	 229
 128	 247
 129	 155
 129	 165
 129	 178
 129	 179
 129	 183
 129	 187
 129	 191
 129	 193
 129	 213
 129	 225
 129	 227
 129	 235
 130	 142
 130	 156
 130	 157
 130	 161
 130	 164
 130	 174
 130	 180
 130	 182
 130	 189
 130	 213
 130	 226
 130	 236
 130	 245
 130	 247
 131	 137
 131	 140
 131	 143
 131	 146
 131	 151
 131	 183
 131	 185
 131	 204
 131	 206
 131	 240
 132	 157
 132	 168
 132	 173
 132	 176
 132	 186
 132	 187
 132	 205
 132	 248
 133	 135
 133	 143
 133	 145
 133	 179
 133	 181
 133	 202
 133	 212
 133	 219
 133	 221
 133	 223
 134	 145
 134	 158
 134	 169
 134	 184
 134	 206
 134	 211
 134	 215
 134	 243
 135	 149
 135	 180
 135	 186
 135	 208
 135	 217
 135	 231
 135	 234
 135	 241
 135	 242
 135	 247
 136	 138
 136	 147
 136	 150
 136	 153
 136	 156
 136	 164
 136	 169
 136	 182
 136	 186
 136	 194
 136	 224
 136	 227
 137	 147
 137	 160
 137	 185
 137	 187
 137	 189
 137	 191
 137	 193
 137	 205
 137	 213
 137	 230
 137	 239
 138	 139
 138	 144
 138	 146
 138	 188
 138	 224
 138	 228
 138	 229
 138	 231
 138	 233
 138	 247
 139	 141
 139	 158
 139	 166
 139	 170
 139	 171
 139	 179
 139	 186
 139	 198
 139	 205
 139	 220
 139	 224
 139	 229
 139	 231
 139	 238
 139	 246
 140	 144
 140	 169
 140	 174
 140	 181
 140	 196
 140	 208
 140	 211
 140	 223
 140	 240
 140	 244
 140	 246
 141	 142
 141	 158
 141	 165
 141	 175
 141	 177
 141	 186
 141	 192
 141	 203
 141	 213
 141	 214
 141	 231
 141	 237
 141	 240
 141	 243
 141	 248
 142	 192
 142	 195
 142	 206
 142	 207
 142	 234
 142	 236
 143	 160
 143	 182
 143	 183
 143	 188
 143	 198
 143	 205
 143	 212
 143	 215
 143	 216
 143	 217
 143	 220
 143	 228
 144	 158
 144	 165
 144	 185
 144	 195
 144	 206
 144	 208
 144	 212
 144	 215
 144	 216
 144	 219
 144	 220
 144	 229
 144	 239
 145	 161
 145	 162
 145	 168
 145	 178
 145	 188
 145	 190
 145	 196
 145	 197
 145	 205
 145	 225
 146	 150
 146	 164
 146	 168
 146	 173
 146	 183
 146	 186
 146	 193
 146	 202
 146	 203
 146	 217
 146	 225
 146	 242
 146	 245
 147	 165
 147	 168
 147	 188
 147	 213
 147	 219
 147	 233
 147	 239
 147	 241
 148	 164
 148	 171
 148	 177
 148	 206
 148	 207
 148	 210
 148	 217
 148	 229
 148	 233
 148	 238
 148	 248
 149	 163
 149	 167
 149	 170
 149	 172
 149	 178
 149	 189
 149	 198
 149	 207
 150	 162
 150	 164
 150	 168
 150	 173
 150	 180
 150	 190
 150	 197
 150	 200
 150	 229
 150	 241
 150	 242
 151	 163
 151	 183
 151	 193
 151	 224
 151	 225
 151	 229
 151	 239
 151	 244
 151	 248
 152	 185
 152	 191
 152	 200
 152	 220
 152	 221
 152	 234
 152	 239
 152	 246
 153	 160
 153	 163
 153	 173
 153	 178
 153	 179
 153	 182
 153	 195
 153	 202
 153	 213
 153	 227
 153	 239
 153	 247
 153	 248
 154	 161
 154	 163
 154	 172
 154	 178
 154	 193
 154	 195
 154	 216
 154	 225
 154	 236
 154	 244
 155	 167
 155	 178
 155	 187
 155	 191
 155	 194
 155	 204
 155	 208
 155	 209
 155	 213
 155	 218
 155	 227
 155	 228
 155	 235
 155	 237
 155	 245
 155	 247
 156	 187
 156	 192
 156	 194
 156	 197
 156	 201
 156	 205
 156	 206
 156	 211
 156	 215
 156	 228
 156	 240
 156	 242
 156	 245
 157	 160
 157	 161
 157	 184
 157	 218
 157	 224
 157	 235
 158	 160
 158	 167
 158	 172
 158	 176
 158	 182
 158	 183
 158	 202
 158	 207
 158	 218
 158	 230
 158	 237
 158	 239
 158	 242
 159	 163
 159	 170
 159	 177
 159	 193
 159	 203
 159	 206
 159	 209
 159	 214
 159	 216
 159	 217
 159	 221
 159	 222
 159	 225
 160	 178
 160	 181
 160	 192
 160	 199
 160	 220
 160	 234
 160	 238
 160	 242
 161	 169
 161	 179
 161	 195
 161	 216
 161	 218
 161	 229
 161	 231
 161	 236
 161	 246
 161	 248
 162	 187
 162	 191
 162	 219
 162	 221
 162	 233
 162	 236
 162	 244
 162	 246
 163	 166
 163	 178
 163	 203
 163	 213
 163	 227
 163	 245
 163	 246
 164	 167
 164	 169
 164	 183
 164	 189
 164	 208
 164	 210
 164	 211
 164	 236
 164	 242
 164	 247
 165	 168
 165	 171
 165	 175
 165	 177
 165	 213
 165	 218
 165	 220
 165	 232
 165	 234
 165	 241
 166	 181
 166	 184
 166	 212
 166	 221
 166	 234
 166	 242
 167	 168
 167	 179
 167	 182
 167	 194
 167	 202
 167	 209
 167	 213
 167	 233
 167	 239
 168	 188
 168	 196
 168	 197
 168	 201
 168	 202
 168	 204
 168	 207
 168	 216
 168	 217
 168	 224
 168	 226
 168	 237
 169	 173
 169	 197
 169	 201
 169	 211
 169	 215
 169	 216
 169	 227
 170	 174
 170	 182
 170	 183
 170	 195
 170	 202
 170	 215
 170	 224
 170	 235
 170	 236
 170	 239
 170	 243
 171	 177
 171	 202
 171	 206
 171	 209
 171	 210
 171	 228
 171	 233
 171	 248
 172	 173
 172	 174
 172	 178
 172	 180
 172	 192
 172	 197
 172	 198
 172	 214
 172	 225
 173	 178
 173	 199
 173	 210
 173	 223
 173	 226
 173	 228
 173	 238
 173	 245
 173	 248
 174	 175
 174	 180
 174	 184
 174	 208
 174	 210
 174	 223
 175	 184
 175	 204
 175	 210
 175	 212
 175	 220
 175	 221
 175	 246
 176	 178
 176	 196
 176	 201
 176	 229
 176	 234
 177	 179
 177	 182
 177	 183
 177	 190
 177	 198
 177	 203
 177	 210
 177	 214
 177	 215
 177	 234
 177	 241
 177	 245
 178	 187
 178	 197
 178	 206
 178	 214
 178	 225
 178	 230
 178	 234
 178	 237
 178	 246
 179	 183
 179	 192
 179	 198
 179	 203
 179	 204
 179	 209
 179	 219
 179	 224
 179	 236
 179	 244
 180	 208
 180	 212
 180	 232
 180	 242
 180	 244
 181	 199
 181	 200
 181	 218
 181	 220
 181	 222
 181	 223
 181	 237
 182	 199
 182	 212
 182	 238
 182	 239
 182	 240
 182	 242
 183	 199
 183	 207
 183	 217
 183	 231
 184	 187
 184	 188
 184	 195
 184	 207
 184	 212
 184	 222
 184	 230
 184	 238
 185	 196
 185	 205
 185	 221
 185	 231
 185	 241
 186	 218
 186	 228
 186	 232
 186	 239
 187	 197
 187	 200
 187	 228
 187	 229
 187	 231
 187	 232
 187	 241
 187	 244
 187	 245
 188	 191
 188	 196
 188	 222
 188	 240
 189	 207
 189	 233
 189	 238
 190	 206
 190	 212
 190	 213
 190	 216
 190	 221
 190	 236
 190	 247
 191	 194
 191	 201
 191	 203
 191	 223
 191	 241
 192	 205
 192	 206
 192	 208
 192	 210
 192	 211
 192	 232
 193	 216
 193	 224
 193	 244
 194	 207
 194	 228
 194	 243
 195	 196
 195	 201
 195	 226
 195	 230
 195	 247
 196	 230
 196	 247
 197	 208
 197	 209
 197	 211
 197	 232
 197	 238
 197	 245
 198	 225
 198	 236
 198	 238
 199	 202
 199	 205
 199	 214
 199	 233
 199	 236
 200	 227
 200	 235
 200	 238
 201	 220
 201	 232
 202	 208
 202	 211
 202	 215
 202	 217
 202	 229
 202	 232
 202	 241
 202	 248
 203	 209
 203	 215
 203	 221
 203	 223
 203	 240
 204	 208
 204	 209
 205	 234
 205	 235
 205	 246
 206	 209
 206	 223
 206	 231
 206	 242
 207	 214
 207	 217
 207	 224
 207	 240
 207	 242
 208	 213
 208	 247
 209	 219
 209	 220
 209	 221
 209	 228
 209	 233
 209	 236
 210	 220
 210	 226
 210	 228
 210	 231
 210	 233
 210	 240
 210	 245
 210	 248
 211	 217
 211	 218
 211	 224
 211	 229
 211	 232
 211	 242
 211	 243
 212	 215
 212	 219
 212	 230
 212	 233
 212	 242
 212	 243
 213	 216
 213	 238
 214	 226
 215	 220
 216	 220
 216	 229
 216	 242
 216	 243
 216	 247
 217	 221
 218	 221
 219	 225
 220	 221
 220	 228
 220	 233
 220	 238
 221	 232
 221	 239
 221	 248
 222	 239
 222	 243
 223	 234
 223	 242
 223	 243
 224	 246
 225	 229
 225	 244
 226	 242
 226	 245
 226	 248
 227	 229
 227	 238
 227	 239
 228	 232
 228	 238
 229	 242
 230	 241
 230	 243
 230	 245
 231	 235
 231	 237
 232	 244
 233	 240
 233	 242
 233	 243
 233	 247
 234	 235
 234	 237
 234	 242
 235	 241
 235	 242
 236	 240
 237	 239
 237	 244
 237	 245
 238	 241
 239	 242
 241	 244
 242	 246
 245	 247
;
